;; sequence(s): A126281
;; terms: 1 2 5 8 10 13 16 18 21 24 27 29 32 35 37 40 43 46 48 51
;; small program: (loop((((x + y) div (2 + 2)) + y) div 2, x, 1) + x) + x
;; fast program: (((2 * (2 * ((x + x) + x))) - 1) div (1 + (2 + (2 + 2)))) + (if x <= 0 then 2 else x)
(set-logic UFNIA)
(define-fun divf ((a Int) (b Int)) Int (ite (< 0 b) (div a b) (div (- a) (- b))))
(declare-fun f0 (Int Int) Int)
(declare-fun g0 (Int) Int)
(declare-fun h0 () Int)
(declare-fun u0 (Int Int) Int)
(declare-fun v0 (Int) Int)
(declare-fun small (Int) Int)
(declare-fun fast (Int) Int)
(assert (forall ((x Int) (y Int)) (= (f0 x y) (divf (+ (divf (+ x y) (+ 2 2)) y) 2))))
(assert (forall ((x Int)) (= (g0 x) x)))
(assert (= h0 1))
(assert (forall ((x Int) (y Int)) (= (u0 x y) (ite (<= x 0) y (f0 (u0 (- x 1) y) x)))))
(assert (forall ((x Int)) (= (v0 x) (u0 (g0 x) h0))))
(assert (forall ((x Int)) (= (small x) (+ (+ (v0 x) x) x))))
(assert (forall ((x Int)) (= (fast x) (+ (divf (- (* 2 (* 2 (+ (+ x x) x))) 1) (+ 1 (+ 2 (+ 2 2)))) (ite (<= x 0) 2 x)))))
(assert (exists ((c Int)) (and (>= c 0) (not (= (small c) (fast c))))))
(check-sat)
